Route #1: 0 17 12 40 32 44 3 49 51 6 0
Route #2: 0 16 24 23 43 41 42 22 1 33 0
Route #3: 0 26 39 9 50 18 25 31 46 0
Route #4: 0 7 35 53 14 19 8 34 52 45 0
Route #5: 0 29 48 21 47 36 20 37 5 15 13 0
Route #6: 0 4 54 27 30 28 2 0
Route #7: 0 11 38 10 0
Cost 683:
